(set-option :produce-models true)
(set-logic QF_LRA)
(set-info :notes | Strip-packing problem.|)
(declare-fun x0 () Real)
(declare-fun y0 () Real)
(declare-fun x1 () Real)
(declare-fun y1 () Real)
(declare-fun x2 () Real)
(declare-fun y2 () Real)
(declare-fun x3 () Real)
(declare-fun y3 () Real)
(declare-fun x4 () Real)
(declare-fun y4 () Real)
(declare-fun x5 () Real)
(declare-fun y5 () Real)
(declare-fun x6 () Real)
(declare-fun y6 () Real)
(declare-fun x7 () Real)
(declare-fun y7 () Real)
(declare-fun x8 () Real)
(declare-fun y8 () Real)
(declare-fun x9 () Real)
(declare-fun y9 () Real)
(declare-fun x10 () Real)
(declare-fun y10 () Real)
(declare-fun x11 () Real)
(declare-fun y11 () Real)
(declare-fun x12 () Real)
(declare-fun y12 () Real)
(declare-fun x13 () Real)
(declare-fun y13 () Real)
(declare-fun x14 () Real)
(declare-fun y14 () Real)
(declare-fun z () Real)
(declare-fun c () Real)
(assert (and (= c z) (and (>= x0 0) 
(and (>= y0 0) 
(and (>= x1 0) 
(and (>= y1 0) 
(and (>= x2 0) 
(and (>= y2 0) 
(and (>= x3 0) 
(and (>= y3 0) 
(and (>= x4 0) 
(and (>= y4 0) 
(and (>= x5 0) 
(and (>= y5 0) 
(and (>= x6 0) 
(and (>= y6 0) 
(and (>= x7 0) 
(and (>= y7 0) 
(and (>= x8 0) 
(and (>= y8 0) 
(and (>= x9 0) 
(and (>= y9 0) 
(and (>= x10 0) 
(and (>= y10 0) 
(and (>= x11 0) 
(and (>= y11 0) 
(and (>= x12 0) 
(and (>= y12 0) 
(and (>= x13 0) 
(and (>= y13 0) 
(and (>= x14 0) 
(and (>= y14 0) 
(and (>= z 0) 
(and (>= c 0) 
(and (<= (+ x0 0.5444318149) z) 
(and (<= 0.9212050147 y0) 
(and (<= y0 1.9364916731) 
(and (<= x0 (- 5.5117265882 0.5444318149)) 
(and (>= x0 0) 
(and (<= (+ x1 0.9387667592) z) 
(and (<= 0.9023894695 y1) 
(and (<= y1 1.9364916731) 
(and (<= x1 (- 5.5117265882 0.9387667592)) 
(and (>= x1 0) 
(and (<= (+ x2 0.3076192178) z) 
(and (<= 0.8449793304 y2) 
(and (<= y2 1.9364916731) 
(and (<= x2 (- 5.5117265882 0.3076192178)) 
(and (>= x2 0) 
(and (<= (+ x3 0.8856862542) z) 
(and (<= 0.8143723205 y3) 
(and (<= y3 1.9364916731) 
(and (<= x3 (- 5.5117265882 0.8856862542)) 
(and (>= x3 0) 
(and (<= (+ x4 0.649081066) z) 
(and (<= 0.799455627 y4) 
(and (<= y4 1.9364916731) 
(and (<= x4 (- 5.5117265882 0.649081066)) 
(and (>= x4 0) 
(and (<= (+ x5 0.7287614096) z) 
(and (<= 0.7809416056 y5) 
(and (<= y5 1.9364916731) 
(and (<= x5 (- 5.5117265882 0.7287614096)) 
(and (>= x5 0) 
(and (<= (+ x6 0.8370641676) z) 
(and (<= 0.7541067919 y6) 
(and (<= y6 1.9364916731) 
(and (<= x6 (- 5.5117265882 0.8370641676)) 
(and (>= x6 0) 
(and (<= (+ x7 0.8546638382) z) 
(and (<= 0.6504887447 y7) 
(and (<= y7 1.9364916731) 
(and (<= x7 (- 5.5117265882 0.8546638382)) 
(and (>= x7 0) 
(and (<= (+ x8 0.1719438159) z) 
(and (<= 0.6321761562 y8) 
(and (<= y8 1.9364916731) 
(and (<= x8 (- 5.5117265882 0.1719438159)) 
(and (>= x8 0) 
(and (<= (+ x9 0.1823111915) z) 
(and (<= 0.6178741224 y9) 
(and (<= y9 1.9364916731) 
(and (<= x9 (- 5.5117265882 0.1823111915)) 
(and (>= x9 0) 
(and (<= (+ x10 0.6909444319) z) 
(and (<= 0.5900217482 y10) 
(and (<= y10 1.9364916731) 
(and (<= x10 (- 5.5117265882 0.6909444319)) 
(and (>= x10 0) 
(and (<= (+ x11 0.0255905187) z) 
(and (<= 0.5089242256 y11) 
(and (<= y11 1.9364916731) 
(and (<= x11 (- 5.5117265882 0.0255905187)) 
(and (>= x11 0) 
(and (<= (+ x12 0.6681432372) z) 
(and (<= 0.2600101755 y12) 
(and (<= y12 1.9364916731) 
(and (<= x12 (- 5.5117265882 0.6681432372)) 
(and (>= x12 0) 
(and (<= (+ x13 0.7402855025) z) 
(and (<= 0.0969269463 y13) 
(and (<= y13 1.9364916731) 
(and (<= x13 (- 5.5117265882 0.7402855025)) 
(and (>= x13 0) 
(and (<= (+ x14 0.9589575327) z) 
(and (<= 0.0876836874 y14) 
(and (<= y14 1.9364916731) 
(and (<= x14 (- 5.5117265882 0.9589575327)) 
(and (>= x14 0) 
(and (<= c 5.5117265882) 
(and (or (<= (+ x0 0.5444318149) x1) (or (<= (+ x1 0.9387667592) x0) (or (>= (- y0 0.9212050147) y1) (or (>= (- y1 0.9023894695) y0))))) 
(and (or (<= (+ x0 0.5444318149) x2) (or (<= (+ x2 0.3076192178) x0) (or (>= (- y0 0.9212050147) y2) (or (>= (- y2 0.8449793304) y0))))) 
(and (or (<= (+ x0 0.5444318149) x3) (or (<= (+ x3 0.8856862542) x0) (or (>= (- y0 0.9212050147) y3) (or (>= (- y3 0.8143723205) y0))))) 
(and (or (<= (+ x0 0.5444318149) x4) (or (<= (+ x4 0.649081066) x0) (or (>= (- y0 0.9212050147) y4) (or (>= (- y4 0.799455627) y0))))) 
(and (or (<= (+ x0 0.5444318149) x5) (or (<= (+ x5 0.7287614096) x0) (or (>= (- y0 0.9212050147) y5) (or (>= (- y5 0.7809416056) y0))))) 
(and (or (<= (+ x0 0.5444318149) x6) (or (<= (+ x6 0.8370641676) x0) (or (>= (- y0 0.9212050147) y6) (or (>= (- y6 0.7541067919) y0))))) 
(and (or (<= (+ x0 0.5444318149) x7) (or (<= (+ x7 0.8546638382) x0) (or (>= (- y0 0.9212050147) y7) (or (>= (- y7 0.6504887447) y0))))) 
(and (or (<= (+ x0 0.5444318149) x8) (or (<= (+ x8 0.1719438159) x0) (or (>= (- y0 0.9212050147) y8) (or (>= (- y8 0.6321761562) y0))))) 
(and (or (<= (+ x0 0.5444318149) x9) (or (<= (+ x9 0.1823111915) x0) (or (>= (- y0 0.9212050147) y9) (or (>= (- y9 0.6178741224) y0))))) 
(and (or (<= (+ x0 0.5444318149) x10) (or (<= (+ x10 0.6909444319) x0) (or (>= (- y0 0.9212050147) y10) (or (>= (- y10 0.5900217482) y0))))) 
(and (or (<= (+ x0 0.5444318149) x11) (or (<= (+ x11 0.0255905187) x0) (or (>= (- y0 0.9212050147) y11) (or (>= (- y11 0.5089242256) y0))))) 
(and (or (<= (+ x0 0.5444318149) x12) (or (<= (+ x12 0.6681432372) x0) (or (>= (- y0 0.9212050147) y12) (or (>= (- y12 0.2600101755) y0))))) 
(and (or (<= (+ x0 0.5444318149) x13) (or (<= (+ x13 0.7402855025) x0) (or (>= (- y0 0.9212050147) y13) (or (>= (- y13 0.0969269463) y0))))) 
(and (or (<= (+ x0 0.5444318149) x14) (or (<= (+ x14 0.9589575327) x0) (or (>= (- y0 0.9212050147) y14) (or (>= (- y14 0.0876836874) y0))))) 
(and (or (<= (+ x1 0.9387667592) x2) (or (<= (+ x2 0.3076192178) x1) (or (>= (- y1 0.9023894695) y2) (or (>= (- y2 0.8449793304) y1))))) 
(and (or (<= (+ x1 0.9387667592) x3) (or (<= (+ x3 0.8856862542) x1) (or (>= (- y1 0.9023894695) y3) (or (>= (- y3 0.8143723205) y1))))) 
(and (or (<= (+ x1 0.9387667592) x4) (or (<= (+ x4 0.649081066) x1) (or (>= (- y1 0.9023894695) y4) (or (>= (- y4 0.799455627) y1))))) 
(and (or (<= (+ x1 0.9387667592) x5) (or (<= (+ x5 0.7287614096) x1) (or (>= (- y1 0.9023894695) y5) (or (>= (- y5 0.7809416056) y1))))) 
(and (or (<= (+ x1 0.9387667592) x6) (or (<= (+ x6 0.8370641676) x1) (or (>= (- y1 0.9023894695) y6) (or (>= (- y6 0.7541067919) y1))))) 
(and (or (<= (+ x1 0.9387667592) x7) (or (<= (+ x7 0.8546638382) x1) (or (>= (- y1 0.9023894695) y7) (or (>= (- y7 0.6504887447) y1))))) 
(and (or (<= (+ x1 0.9387667592) x8) (or (<= (+ x8 0.1719438159) x1) (or (>= (- y1 0.9023894695) y8) (or (>= (- y8 0.6321761562) y1))))) 
(and (or (<= (+ x1 0.9387667592) x9) (or (<= (+ x9 0.1823111915) x1) (or (>= (- y1 0.9023894695) y9) (or (>= (- y9 0.6178741224) y1))))) 
(and (or (<= (+ x1 0.9387667592) x10) (or (<= (+ x10 0.6909444319) x1) (or (>= (- y1 0.9023894695) y10) (or (>= (- y10 0.5900217482) y1))))) 
(and (or (<= (+ x1 0.9387667592) x11) (or (<= (+ x11 0.0255905187) x1) (or (>= (- y1 0.9023894695) y11) (or (>= (- y11 0.5089242256) y1))))) 
(and (or (<= (+ x1 0.9387667592) x12) (or (<= (+ x12 0.6681432372) x1) (or (>= (- y1 0.9023894695) y12) (or (>= (- y12 0.2600101755) y1))))) 
(and (or (<= (+ x1 0.9387667592) x13) (or (<= (+ x13 0.7402855025) x1) (or (>= (- y1 0.9023894695) y13) (or (>= (- y13 0.0969269463) y1))))) 
(and (or (<= (+ x1 0.9387667592) x14) (or (<= (+ x14 0.9589575327) x1) (or (>= (- y1 0.9023894695) y14) (or (>= (- y14 0.0876836874) y1))))) 
(and (or (<= (+ x2 0.3076192178) x3) (or (<= (+ x3 0.8856862542) x2) (or (>= (- y2 0.8449793304) y3) (or (>= (- y3 0.8143723205) y2))))) 
(and (or (<= (+ x2 0.3076192178) x4) (or (<= (+ x4 0.649081066) x2) (or (>= (- y2 0.8449793304) y4) (or (>= (- y4 0.799455627) y2))))) 
(and (or (<= (+ x2 0.3076192178) x5) (or (<= (+ x5 0.7287614096) x2) (or (>= (- y2 0.8449793304) y5) (or (>= (- y5 0.7809416056) y2))))) 
(and (or (<= (+ x2 0.3076192178) x6) (or (<= (+ x6 0.8370641676) x2) (or (>= (- y2 0.8449793304) y6) (or (>= (- y6 0.7541067919) y2))))) 
(and (or (<= (+ x2 0.3076192178) x7) (or (<= (+ x7 0.8546638382) x2) (or (>= (- y2 0.8449793304) y7) (or (>= (- y7 0.6504887447) y2))))) 
(and (or (<= (+ x2 0.3076192178) x8) (or (<= (+ x8 0.1719438159) x2) (or (>= (- y2 0.8449793304) y8) (or (>= (- y8 0.6321761562) y2))))) 
(and (or (<= (+ x2 0.3076192178) x9) (or (<= (+ x9 0.1823111915) x2) (or (>= (- y2 0.8449793304) y9) (or (>= (- y9 0.6178741224) y2))))) 
(and (or (<= (+ x2 0.3076192178) x10) (or (<= (+ x10 0.6909444319) x2) (or (>= (- y2 0.8449793304) y10) (or (>= (- y10 0.5900217482) y2))))) 
(and (or (<= (+ x2 0.3076192178) x11) (or (<= (+ x11 0.0255905187) x2) (or (>= (- y2 0.8449793304) y11) (or (>= (- y11 0.5089242256) y2))))) 
(and (or (<= (+ x2 0.3076192178) x12) (or (<= (+ x12 0.6681432372) x2) (or (>= (- y2 0.8449793304) y12) (or (>= (- y12 0.2600101755) y2))))) 
(and (or (<= (+ x2 0.3076192178) x13) (or (<= (+ x13 0.7402855025) x2) (or (>= (- y2 0.8449793304) y13) (or (>= (- y13 0.0969269463) y2))))) 
(and (or (<= (+ x2 0.3076192178) x14) (or (<= (+ x14 0.9589575327) x2) (or (>= (- y2 0.8449793304) y14) (or (>= (- y14 0.0876836874) y2))))) 
(and (or (<= (+ x3 0.8856862542) x4) (or (<= (+ x4 0.649081066) x3) (or (>= (- y3 0.8143723205) y4) (or (>= (- y4 0.799455627) y3))))) 
(and (or (<= (+ x3 0.8856862542) x5) (or (<= (+ x5 0.7287614096) x3) (or (>= (- y3 0.8143723205) y5) (or (>= (- y5 0.7809416056) y3))))) 
(and (or (<= (+ x3 0.8856862542) x6) (or (<= (+ x6 0.8370641676) x3) (or (>= (- y3 0.8143723205) y6) (or (>= (- y6 0.7541067919) y3))))) 
(and (or (<= (+ x3 0.8856862542) x7) (or (<= (+ x7 0.8546638382) x3) (or (>= (- y3 0.8143723205) y7) (or (>= (- y7 0.6504887447) y3))))) 
(and (or (<= (+ x3 0.8856862542) x8) (or (<= (+ x8 0.1719438159) x3) (or (>= (- y3 0.8143723205) y8) (or (>= (- y8 0.6321761562) y3))))) 
(and (or (<= (+ x3 0.8856862542) x9) (or (<= (+ x9 0.1823111915) x3) (or (>= (- y3 0.8143723205) y9) (or (>= (- y9 0.6178741224) y3))))) 
(and (or (<= (+ x3 0.8856862542) x10) (or (<= (+ x10 0.6909444319) x3) (or (>= (- y3 0.8143723205) y10) (or (>= (- y10 0.5900217482) y3))))) 
(and (or (<= (+ x3 0.8856862542) x11) (or (<= (+ x11 0.0255905187) x3) (or (>= (- y3 0.8143723205) y11) (or (>= (- y11 0.5089242256) y3))))) 
(and (or (<= (+ x3 0.8856862542) x12) (or (<= (+ x12 0.6681432372) x3) (or (>= (- y3 0.8143723205) y12) (or (>= (- y12 0.2600101755) y3))))) 
(and (or (<= (+ x3 0.8856862542) x13) (or (<= (+ x13 0.7402855025) x3) (or (>= (- y3 0.8143723205) y13) (or (>= (- y13 0.0969269463) y3))))) 
(and (or (<= (+ x3 0.8856862542) x14) (or (<= (+ x14 0.9589575327) x3) (or (>= (- y3 0.8143723205) y14) (or (>= (- y14 0.0876836874) y3))))) 
(and (or (<= (+ x4 0.649081066) x5) (or (<= (+ x5 0.7287614096) x4) (or (>= (- y4 0.799455627) y5) (or (>= (- y5 0.7809416056) y4))))) 
(and (or (<= (+ x4 0.649081066) x6) (or (<= (+ x6 0.8370641676) x4) (or (>= (- y4 0.799455627) y6) (or (>= (- y6 0.7541067919) y4))))) 
(and (or (<= (+ x4 0.649081066) x7) (or (<= (+ x7 0.8546638382) x4) (or (>= (- y4 0.799455627) y7) (or (>= (- y7 0.6504887447) y4))))) 
(and (or (<= (+ x4 0.649081066) x8) (or (<= (+ x8 0.1719438159) x4) (or (>= (- y4 0.799455627) y8) (or (>= (- y8 0.6321761562) y4))))) 
(and (or (<= (+ x4 0.649081066) x9) (or (<= (+ x9 0.1823111915) x4) (or (>= (- y4 0.799455627) y9) (or (>= (- y9 0.6178741224) y4))))) 
(and (or (<= (+ x4 0.649081066) x10) (or (<= (+ x10 0.6909444319) x4) (or (>= (- y4 0.799455627) y10) (or (>= (- y10 0.5900217482) y4))))) 
(and (or (<= (+ x4 0.649081066) x11) (or (<= (+ x11 0.0255905187) x4) (or (>= (- y4 0.799455627) y11) (or (>= (- y11 0.5089242256) y4))))) 
(and (or (<= (+ x4 0.649081066) x12) (or (<= (+ x12 0.6681432372) x4) (or (>= (- y4 0.799455627) y12) (or (>= (- y12 0.2600101755) y4))))) 
(and (or (<= (+ x4 0.649081066) x13) (or (<= (+ x13 0.7402855025) x4) (or (>= (- y4 0.799455627) y13) (or (>= (- y13 0.0969269463) y4))))) 
(and (or (<= (+ x4 0.649081066) x14) (or (<= (+ x14 0.9589575327) x4) (or (>= (- y4 0.799455627) y14) (or (>= (- y14 0.0876836874) y4))))) 
(and (or (<= (+ x5 0.7287614096) x6) (or (<= (+ x6 0.8370641676) x5) (or (>= (- y5 0.7809416056) y6) (or (>= (- y6 0.7541067919) y5))))) 
(and (or (<= (+ x5 0.7287614096) x7) (or (<= (+ x7 0.8546638382) x5) (or (>= (- y5 0.7809416056) y7) (or (>= (- y7 0.6504887447) y5))))) 
(and (or (<= (+ x5 0.7287614096) x8) (or (<= (+ x8 0.1719438159) x5) (or (>= (- y5 0.7809416056) y8) (or (>= (- y8 0.6321761562) y5))))) 
(and (or (<= (+ x5 0.7287614096) x9) (or (<= (+ x9 0.1823111915) x5) (or (>= (- y5 0.7809416056) y9) (or (>= (- y9 0.6178741224) y5))))) 
(and (or (<= (+ x5 0.7287614096) x10) (or (<= (+ x10 0.6909444319) x5) (or (>= (- y5 0.7809416056) y10) (or (>= (- y10 0.5900217482) y5))))) 
(and (or (<= (+ x5 0.7287614096) x11) (or (<= (+ x11 0.0255905187) x5) (or (>= (- y5 0.7809416056) y11) (or (>= (- y11 0.5089242256) y5))))) 
(and (or (<= (+ x5 0.7287614096) x12) (or (<= (+ x12 0.6681432372) x5) (or (>= (- y5 0.7809416056) y12) (or (>= (- y12 0.2600101755) y5))))) 
(and (or (<= (+ x5 0.7287614096) x13) (or (<= (+ x13 0.7402855025) x5) (or (>= (- y5 0.7809416056) y13) (or (>= (- y13 0.0969269463) y5))))) 
(and (or (<= (+ x5 0.7287614096) x14) (or (<= (+ x14 0.9589575327) x5) (or (>= (- y5 0.7809416056) y14) (or (>= (- y14 0.0876836874) y5))))) 
(and (or (<= (+ x6 0.8370641676) x7) (or (<= (+ x7 0.8546638382) x6) (or (>= (- y6 0.7541067919) y7) (or (>= (- y7 0.6504887447) y6))))) 
(and (or (<= (+ x6 0.8370641676) x8) (or (<= (+ x8 0.1719438159) x6) (or (>= (- y6 0.7541067919) y8) (or (>= (- y8 0.6321761562) y6))))) 
(and (or (<= (+ x6 0.8370641676) x9) (or (<= (+ x9 0.1823111915) x6) (or (>= (- y6 0.7541067919) y9) (or (>= (- y9 0.6178741224) y6))))) 
(and (or (<= (+ x6 0.8370641676) x10) (or (<= (+ x10 0.6909444319) x6) (or (>= (- y6 0.7541067919) y10) (or (>= (- y10 0.5900217482) y6))))) 
(and (or (<= (+ x6 0.8370641676) x11) (or (<= (+ x11 0.0255905187) x6) (or (>= (- y6 0.7541067919) y11) (or (>= (- y11 0.5089242256) y6))))) 
(and (or (<= (+ x6 0.8370641676) x12) (or (<= (+ x12 0.6681432372) x6) (or (>= (- y6 0.7541067919) y12) (or (>= (- y12 0.2600101755) y6))))) 
(and (or (<= (+ x6 0.8370641676) x13) (or (<= (+ x13 0.7402855025) x6) (or (>= (- y6 0.7541067919) y13) (or (>= (- y13 0.0969269463) y6))))) 
(and (or (<= (+ x6 0.8370641676) x14) (or (<= (+ x14 0.9589575327) x6) (or (>= (- y6 0.7541067919) y14) (or (>= (- y14 0.0876836874) y6))))) 
(and (or (<= (+ x7 0.8546638382) x8) (or (<= (+ x8 0.1719438159) x7) (or (>= (- y7 0.6504887447) y8) (or (>= (- y8 0.6321761562) y7))))) 
(and (or (<= (+ x7 0.8546638382) x9) (or (<= (+ x9 0.1823111915) x7) (or (>= (- y7 0.6504887447) y9) (or (>= (- y9 0.6178741224) y7))))) 
(and (or (<= (+ x7 0.8546638382) x10) (or (<= (+ x10 0.6909444319) x7) (or (>= (- y7 0.6504887447) y10) (or (>= (- y10 0.5900217482) y7))))) 
(and (or (<= (+ x7 0.8546638382) x11) (or (<= (+ x11 0.0255905187) x7) (or (>= (- y7 0.6504887447) y11) (or (>= (- y11 0.5089242256) y7))))) 
(and (or (<= (+ x7 0.8546638382) x12) (or (<= (+ x12 0.6681432372) x7) (or (>= (- y7 0.6504887447) y12) (or (>= (- y12 0.2600101755) y7))))) 
(and (or (<= (+ x7 0.8546638382) x13) (or (<= (+ x13 0.7402855025) x7) (or (>= (- y7 0.6504887447) y13) (or (>= (- y13 0.0969269463) y7))))) 
(and (or (<= (+ x7 0.8546638382) x14) (or (<= (+ x14 0.9589575327) x7) (or (>= (- y7 0.6504887447) y14) (or (>= (- y14 0.0876836874) y7))))) 
(and (or (<= (+ x8 0.1719438159) x9) (or (<= (+ x9 0.1823111915) x8) (or (>= (- y8 0.6321761562) y9) (or (>= (- y9 0.6178741224) y8))))) 
(and (or (<= (+ x8 0.1719438159) x10) (or (<= (+ x10 0.6909444319) x8) (or (>= (- y8 0.6321761562) y10) (or (>= (- y10 0.5900217482) y8))))) 
(and (or (<= (+ x8 0.1719438159) x11) (or (<= (+ x11 0.0255905187) x8) (or (>= (- y8 0.6321761562) y11) (or (>= (- y11 0.5089242256) y8))))) 
(and (or (<= (+ x8 0.1719438159) x12) (or (<= (+ x12 0.6681432372) x8) (or (>= (- y8 0.6321761562) y12) (or (>= (- y12 0.2600101755) y8))))) 
(and (or (<= (+ x8 0.1719438159) x13) (or (<= (+ x13 0.7402855025) x8) (or (>= (- y8 0.6321761562) y13) (or (>= (- y13 0.0969269463) y8))))) 
(and (or (<= (+ x8 0.1719438159) x14) (or (<= (+ x14 0.9589575327) x8) (or (>= (- y8 0.6321761562) y14) (or (>= (- y14 0.0876836874) y8))))) 
(and (or (<= (+ x9 0.1823111915) x10) (or (<= (+ x10 0.6909444319) x9) (or (>= (- y9 0.6178741224) y10) (or (>= (- y10 0.5900217482) y9))))) 
(and (or (<= (+ x9 0.1823111915) x11) (or (<= (+ x11 0.0255905187) x9) (or (>= (- y9 0.6178741224) y11) (or (>= (- y11 0.5089242256) y9))))) 
(and (or (<= (+ x9 0.1823111915) x12) (or (<= (+ x12 0.6681432372) x9) (or (>= (- y9 0.6178741224) y12) (or (>= (- y12 0.2600101755) y9))))) 
(and (or (<= (+ x9 0.1823111915) x13) (or (<= (+ x13 0.7402855025) x9) (or (>= (- y9 0.6178741224) y13) (or (>= (- y13 0.0969269463) y9))))) 
(and (or (<= (+ x9 0.1823111915) x14) (or (<= (+ x14 0.9589575327) x9) (or (>= (- y9 0.6178741224) y14) (or (>= (- y14 0.0876836874) y9))))) 
(and (or (<= (+ x10 0.6909444319) x11) (or (<= (+ x11 0.0255905187) x10) (or (>= (- y10 0.5900217482) y11) (or (>= (- y11 0.5089242256) y10))))) 
(and (or (<= (+ x10 0.6909444319) x12) (or (<= (+ x12 0.6681432372) x10) (or (>= (- y10 0.5900217482) y12) (or (>= (- y12 0.2600101755) y10))))) 
(and (or (<= (+ x10 0.6909444319) x13) (or (<= (+ x13 0.7402855025) x10) (or (>= (- y10 0.5900217482) y13) (or (>= (- y13 0.0969269463) y10))))) 
(and (or (<= (+ x10 0.6909444319) x14) (or (<= (+ x14 0.9589575327) x10) (or (>= (- y10 0.5900217482) y14) (or (>= (- y14 0.0876836874) y10))))) 
(and (or (<= (+ x11 0.0255905187) x12) (or (<= (+ x12 0.6681432372) x11) (or (>= (- y11 0.5089242256) y12) (or (>= (- y12 0.2600101755) y11))))) 
(and (or (<= (+ x11 0.0255905187) x13) (or (<= (+ x13 0.7402855025) x11) (or (>= (- y11 0.5089242256) y13) (or (>= (- y13 0.0969269463) y11))))) 
(and (or (<= (+ x11 0.0255905187) x14) (or (<= (+ x14 0.9589575327) x11) (or (>= (- y11 0.5089242256) y14) (or (>= (- y14 0.0876836874) y11))))) 
(and (or (<= (+ x12 0.6681432372) x13) (or (<= (+ x13 0.7402855025) x12) (or (>= (- y12 0.2600101755) y13) (or (>= (- y13 0.0969269463) y12))))) 
(and (or (<= (+ x12 0.6681432372) x14) (or (<= (+ x14 0.9589575327) x12) (or (>= (- y12 0.2600101755) y14) (or (>= (- y14 0.0876836874) y12))))) 
(and (or (<= (+ x13 0.7402855025) x14) (or (<= (+ x14 0.9589575327) x13) (or (>= (- y13 0.0969269463) y14) (or (>= (- y14 0.0876836874) y13))))) )))))))))))))))))))))))))))))))))))))))))))))))))))))))))))))))))))))))))))))))))))))))))))))))))))))))))))))))))))))))))))))))))))))))))))))))))))))))))))))))))))))))))))))))))))))))))))))))))))))))))))))))))))))))
(minimize c)
(check-sat)
(get-objectives)
(exit)
